WARNING: for repeatability, setting FPU to use double precision
============================[ Problem Statistics ]=============================
|                                                                             |
|  Number of variables:            50                                         |
|  Number of clauses:             218                                         |
|  Parse time:                   0.00 s                                       |
|                                                                             |
============================[ Search Statistics ]==============================
| Conflicts |          ORIGINAL         |          LEARNT          | Progress |
|           |    Vars  Clauses Literals |    Limit  Clauses Lit/Cl |          |
===============================================================================
===============================================================================
restarts              : 1
conflicts             : 55             (275000 /sec)
decisions             : 67             (0.00 % random) (335000 /sec)
propagations          : 854            (4270000 /sec)
conflict literals     : 191            (18.72 % deleted)
Memory used           : 20.00 MB
CPU time              : 0.0002 s

UNSATISFIABLE
